Problem:    Ponti
Rows:       5
Columns:    20 (20 integer, 20 binary)
Non-zeros:  40
Status:     INTEGER OPTIMAL
Objective:  z = 92 (MINimum)

   No.   Row name        Activity     Lower bound   Upper bound
------ ------------    ------------- ------------- -------------
     1 disponibilita_ponti[1]
                                   2             2             = 
     2 disponibilita_ponti[2]
                                   2             2             = 
     3 disponibilita_ponti[3]
                                   2             2             = 
     4 disponibilita_ponti[4]
                                   2             2             = 
     5 z                          92                             

   No. Column name       Activity     Lower bound   Upper bound
------ ------------    ------------- ------------- -------------
     1 y[1,1]       *              1             0             1 
     2 y[2,1]       *              1             0             1 
     3 y[3,1]       *              0             0             1 
     4 y[4,1]       *              0             0             1 
     5 y[5,1]       *              0             0             1 
     6 y[1,2]       *              1             0             1 
     7 y[2,2]       *              0             0             1 
     8 y[3,2]       *              1             0             1 
     9 y[4,2]       *              0             0             1 
    10 y[5,2]       *              0             0             1 
    11 y[1,3]       *              0             0             1 
    12 y[2,3]       *              0             0             1 
    13 y[3,3]       *              1             0             1 
    14 y[4,3]       *              0             0             1 
    15 y[5,3]       *              1             0             1 
    16 y[1,4]       *              0             0             1 
    17 y[2,4]       *              0             0             1 
    18 y[3,4]       *              0             0             1 
    19 y[4,4]       *              1             0             1 
    20 y[5,4]       *              1             0             1 

Integer feasibility conditions:

KKT.PE: max.abs.err = 0.00e+000 on row 0
        max.rel.err = 0.00e+000 on row 0
        High quality

KKT.PB: max.abs.err = 0.00e+000 on row 0
        max.rel.err = 0.00e+000 on row 0
        High quality

End of output
